c created by edge2cnf
p cnf 500 3100
-1 -2 0
-1 -3 0
-1 -4 0
-1 -5 0
-2 -3 0
-2 -4 0
-2 -5 0
-3 -4 0
-3 -5 0
-4 -5 0
1 2 3 4 5 0
-6 -7 0
-6 -8 0
-6 -9 0
-6 -10 0
-7 -8 0
-7 -9 0
-7 -10 0
-8 -9 0
-8 -10 0
-9 -10 0
6 7 8 9 10 0
-11 -12 0
-11 -13 0
-11 -14 0
-11 -15 0
-12 -13 0
-12 -14 0
-12 -15 0
-13 -14 0
-13 -15 0
-14 -15 0
11 12 13 14 15 0
-16 -17 0
-16 -18 0
-16 -19 0
-16 -20 0
-17 -18 0
-17 -19 0
-17 -20 0
-18 -19 0
-18 -20 0
-19 -20 0
16 17 18 19 20 0
-21 -22 0
-21 -23 0
-21 -24 0
-21 -25 0
-22 -23 0
-22 -24 0
-22 -25 0
-23 -24 0
-23 -25 0
-24 -25 0
21 22 23 24 25 0
-26 -27 0
-26 -28 0
-26 -29 0
-26 -30 0
-27 -28 0
-27 -29 0
-27 -30 0
-28 -29 0
-28 -30 0
-29 -30 0
26 27 28 29 30 0
-31 -32 0
-31 -33 0
-31 -34 0
-31 -35 0
-32 -33 0
-32 -34 0
-32 -35 0
-33 -34 0
-33 -35 0
-34 -35 0
31 32 33 34 35 0
-36 -37 0
-36 -38 0
-36 -39 0
-36 -40 0
-37 -38 0
-37 -39 0
-37 -40 0
-38 -39 0
-38 -40 0
-39 -40 0
36 37 38 39 40 0
-41 -42 0
-41 -43 0
-41 -44 0
-41 -45 0
-42 -43 0
-42 -44 0
-42 -45 0
-43 -44 0
-43 -45 0
-44 -45 0
41 42 43 44 45 0
-46 -47 0
-46 -48 0
-46 -49 0
-46 -50 0
-47 -48 0
-47 -49 0
-47 -50 0
-48 -49 0
-48 -50 0
-49 -50 0
46 47 48 49 50 0
-51 -52 0
-51 -53 0
-51 -54 0
-51 -55 0
-52 -53 0
-52 -54 0
-52 -55 0
-53 -54 0
-53 -55 0
-54 -55 0
51 52 53 54 55 0
-56 -57 0
-56 -58 0
-56 -59 0
-56 -60 0
-57 -58 0
-57 -59 0
-57 -60 0
-58 -59 0
-58 -60 0
-59 -60 0
56 57 58 59 60 0
-61 -62 0
-61 -63 0
-61 -64 0
-61 -65 0
-62 -63 0
-62 -64 0
-62 -65 0
-63 -64 0
-63 -65 0
-64 -65 0
61 62 63 64 65 0
-66 -67 0
-66 -68 0
-66 -69 0
-66 -70 0
-67 -68 0
-67 -69 0
-67 -70 0
-68 -69 0
-68 -70 0
-69 -70 0
66 67 68 69 70 0
-71 -72 0
-71 -73 0
-71 -74 0
-71 -75 0
-72 -73 0
-72 -74 0
-72 -75 0
-73 -74 0
-73 -75 0
-74 -75 0
71 72 73 74 75 0
-76 -77 0
-76 -78 0
-76 -79 0
-76 -80 0
-77 -78 0
-77 -79 0
-77 -80 0
-78 -79 0
-78 -80 0
-79 -80 0
76 77 78 79 80 0
-81 -82 0
-81 -83 0
-81 -84 0
-81 -85 0
-82 -83 0
-82 -84 0
-82 -85 0
-83 -84 0
-83 -85 0
-84 -85 0
81 82 83 84 85 0
-86 -87 0
-86 -88 0
-86 -89 0
-86 -90 0
-87 -88 0
-87 -89 0
-87 -90 0
-88 -89 0
-88 -90 0
-89 -90 0
86 87 88 89 90 0
-91 -92 0
-91 -93 0
-91 -94 0
-91 -95 0
-92 -93 0
-92 -94 0
-92 -95 0
-93 -94 0
-93 -95 0
-94 -95 0
91 92 93 94 95 0
-96 -97 0
-96 -98 0
-96 -99 0
-96 -100 0
-97 -98 0
-97 -99 0
-97 -100 0
-98 -99 0
-98 -100 0
-99 -100 0
96 97 98 99 100 0
-101 -102 0
-101 -103 0
-101 -104 0
-101 -105 0
-102 -103 0
-102 -104 0
-102 -105 0
-103 -104 0
-103 -105 0
-104 -105 0
101 102 103 104 105 0
-106 -107 0
-106 -108 0
-106 -109 0
-106 -110 0
-107 -108 0
-107 -109 0
-107 -110 0
-108 -109 0
-108 -110 0
-109 -110 0
106 107 108 109 110 0
-111 -112 0
-111 -113 0
-111 -114 0
-111 -115 0
-112 -113 0
-112 -114 0
-112 -115 0
-113 -114 0
-113 -115 0
-114 -115 0
111 112 113 114 115 0
-116 -117 0
-116 -118 0
-116 -119 0
-116 -120 0
-117 -118 0
-117 -119 0
-117 -120 0
-118 -119 0
-118 -120 0
-119 -120 0
116 117 118 119 120 0
-121 -122 0
-121 -123 0
-121 -124 0
-121 -125 0
-122 -123 0
-122 -124 0
-122 -125 0
-123 -124 0
-123 -125 0
-124 -125 0
121 122 123 124 125 0
-126 -127 0
-126 -128 0
-126 -129 0
-126 -130 0
-127 -128 0
-127 -129 0
-127 -130 0
-128 -129 0
-128 -130 0
-129 -130 0
126 127 128 129 130 0
-131 -132 0
-131 -133 0
-131 -134 0
-131 -135 0
-132 -133 0
-132 -134 0
-132 -135 0
-133 -134 0
-133 -135 0
-134 -135 0
131 132 133 134 135 0
-136 -137 0
-136 -138 0
-136 -139 0
-136 -140 0
-137 -138 0
-137 -139 0
-137 -140 0
-138 -139 0
-138 -140 0
-139 -140 0
136 137 138 139 140 0
-141 -142 0
-141 -143 0
-141 -144 0
-141 -145 0
-142 -143 0
-142 -144 0
-142 -145 0
-143 -144 0
-143 -145 0
-144 -145 0
141 142 143 144 145 0
-146 -147 0
-146 -148 0
-146 -149 0
-146 -150 0
-147 -148 0
-147 -149 0
-147 -150 0
-148 -149 0
-148 -150 0
-149 -150 0
146 147 148 149 150 0
-151 -152 0
-151 -153 0
-151 -154 0
-151 -155 0
-152 -153 0
-152 -154 0
-152 -155 0
-153 -154 0
-153 -155 0
-154 -155 0
151 152 153 154 155 0
-156 -157 0
-156 -158 0
-156 -159 0
-156 -160 0
-157 -158 0
-157 -159 0
-157 -160 0
-158 -159 0
-158 -160 0
-159 -160 0
156 157 158 159 160 0
-161 -162 0
-161 -163 0
-161 -164 0
-161 -165 0
-162 -163 0
-162 -164 0
-162 -165 0
-163 -164 0
-163 -165 0
-164 -165 0
161 162 163 164 165 0
-166 -167 0
-166 -168 0
-166 -169 0
-166 -170 0
-167 -168 0
-167 -169 0
-167 -170 0
-168 -169 0
-168 -170 0
-169 -170 0
166 167 168 169 170 0
-171 -172 0
-171 -173 0
-171 -174 0
-171 -175 0
-172 -173 0
-172 -174 0
-172 -175 0
-173 -174 0
-173 -175 0
-174 -175 0
171 172 173 174 175 0
-176 -177 0
-176 -178 0
-176 -179 0
-176 -180 0
-177 -178 0
-177 -179 0
-177 -180 0
-178 -179 0
-178 -180 0
-179 -180 0
176 177 178 179 180 0
-181 -182 0
-181 -183 0
-181 -184 0
-181 -185 0
-182 -183 0
-182 -184 0
-182 -185 0
-183 -184 0
-183 -185 0
-184 -185 0
181 182 183 184 185 0
-186 -187 0
-186 -188 0
-186 -189 0
-186 -190 0
-187 -188 0
-187 -189 0
-187 -190 0
-188 -189 0
-188 -190 0
-189 -190 0
186 187 188 189 190 0
-191 -192 0
-191 -193 0
-191 -194 0
-191 -195 0
-192 -193 0
-192 -194 0
-192 -195 0
-193 -194 0
-193 -195 0
-194 -195 0
191 192 193 194 195 0
-196 -197 0
-196 -198 0
-196 -199 0
-196 -200 0
-197 -198 0
-197 -199 0
-197 -200 0
-198 -199 0
-198 -200 0
-199 -200 0
196 197 198 199 200 0
-201 -202 0
-201 -203 0
-201 -204 0
-201 -205 0
-202 -203 0
-202 -204 0
-202 -205 0
-203 -204 0
-203 -205 0
-204 -205 0
201 202 203 204 205 0
-206 -207 0
-206 -208 0
-206 -209 0
-206 -210 0
-207 -208 0
-207 -209 0
-207 -210 0
-208 -209 0
-208 -210 0
-209 -210 0
206 207 208 209 210 0
-211 -212 0
-211 -213 0
-211 -214 0
-211 -215 0
-212 -213 0
-212 -214 0
-212 -215 0
-213 -214 0
-213 -215 0
-214 -215 0
211 212 213 214 215 0
-216 -217 0
-216 -218 0
-216 -219 0
-216 -220 0
-217 -218 0
-217 -219 0
-217 -220 0
-218 -219 0
-218 -220 0
-219 -220 0
216 217 218 219 220 0
-221 -222 0
-221 -223 0
-221 -224 0
-221 -225 0
-222 -223 0
-222 -224 0
-222 -225 0
-223 -224 0
-223 -225 0
-224 -225 0
221 222 223 224 225 0
-226 -227 0
-226 -228 0
-226 -229 0
-226 -230 0
-227 -228 0
-227 -229 0
-227 -230 0
-228 -229 0
-228 -230 0
-229 -230 0
226 227 228 229 230 0
-231 -232 0
-231 -233 0
-231 -234 0
-231 -235 0
-232 -233 0
-232 -234 0
-232 -235 0
-233 -234 0
-233 -235 0
-234 -235 0
231 232 233 234 235 0
-236 -237 0
-236 -238 0
-236 -239 0
-236 -240 0
-237 -238 0
-237 -239 0
-237 -240 0
-238 -239 0
-238 -240 0
-239 -240 0
236 237 238 239 240 0
-241 -242 0
-241 -243 0
-241 -244 0
-241 -245 0
-242 -243 0
-242 -244 0
-242 -245 0
-243 -244 0
-243 -245 0
-244 -245 0
241 242 243 244 245 0
-246 -247 0
-246 -248 0
-246 -249 0
-246 -250 0
-247 -248 0
-247 -249 0
-247 -250 0
-248 -249 0
-248 -250 0
-249 -250 0
246 247 248 249 250 0
-251 -252 0
-251 -253 0
-251 -254 0
-251 -255 0
-252 -253 0
-252 -254 0
-252 -255 0
-253 -254 0
-253 -255 0
-254 -255 0
251 252 253 254 255 0
-256 -257 0
-256 -258 0
-256 -259 0
-256 -260 0
-257 -258 0
-257 -259 0
-257 -260 0
-258 -259 0
-258 -260 0
-259 -260 0
256 257 258 259 260 0
-261 -262 0
-261 -263 0
-261 -264 0
-261 -265 0
-262 -263 0
-262 -264 0
-262 -265 0
-263 -264 0
-263 -265 0
-264 -265 0
261 262 263 264 265 0
-266 -267 0
-266 -268 0
-266 -269 0
-266 -270 0
-267 -268 0
-267 -269 0
-267 -270 0
-268 -269 0
-268 -270 0
-269 -270 0
266 267 268 269 270 0
-271 -272 0
-271 -273 0
-271 -274 0
-271 -275 0
-272 -273 0
-272 -274 0
-272 -275 0
-273 -274 0
-273 -275 0
-274 -275 0
271 272 273 274 275 0
-276 -277 0
-276 -278 0
-276 -279 0
-276 -280 0
-277 -278 0
-277 -279 0
-277 -280 0
-278 -279 0
-278 -280 0
-279 -280 0
276 277 278 279 280 0
-281 -282 0
-281 -283 0
-281 -284 0
-281 -285 0
-282 -283 0
-282 -284 0
-282 -285 0
-283 -284 0
-283 -285 0
-284 -285 0
281 282 283 284 285 0
-286 -287 0
-286 -288 0
-286 -289 0
-286 -290 0
-287 -288 0
-287 -289 0
-287 -290 0
-288 -289 0
-288 -290 0
-289 -290 0
286 287 288 289 290 0
-291 -292 0
-291 -293 0
-291 -294 0
-291 -295 0
-292 -293 0
-292 -294 0
-292 -295 0
-293 -294 0
-293 -295 0
-294 -295 0
291 292 293 294 295 0
-296 -297 0
-296 -298 0
-296 -299 0
-296 -300 0
-297 -298 0
-297 -299 0
-297 -300 0
-298 -299 0
-298 -300 0
-299 -300 0
296 297 298 299 300 0
-301 -302 0
-301 -303 0
-301 -304 0
-301 -305 0
-302 -303 0
-302 -304 0
-302 -305 0
-303 -304 0
-303 -305 0
-304 -305 0
301 302 303 304 305 0
-306 -307 0
-306 -308 0
-306 -309 0
-306 -310 0
-307 -308 0
-307 -309 0
-307 -310 0
-308 -309 0
-308 -310 0
-309 -310 0
306 307 308 309 310 0
-311 -312 0
-311 -313 0
-311 -314 0
-311 -315 0
-312 -313 0
-312 -314 0
-312 -315 0
-313 -314 0
-313 -315 0
-314 -315 0
311 312 313 314 315 0
-316 -317 0
-316 -318 0
-316 -319 0
-316 -320 0
-317 -318 0
-317 -319 0
-317 -320 0
-318 -319 0
-318 -320 0
-319 -320 0
316 317 318 319 320 0
-321 -322 0
-321 -323 0
-321 -324 0
-321 -325 0
-322 -323 0
-322 -324 0
-322 -325 0
-323 -324 0
-323 -325 0
-324 -325 0
321 322 323 324 325 0
-326 -327 0
-326 -328 0
-326 -329 0
-326 -330 0
-327 -328 0
-327 -329 0
-327 -330 0
-328 -329 0
-328 -330 0
-329 -330 0
326 327 328 329 330 0
-331 -332 0
-331 -333 0
-331 -334 0
-331 -335 0
-332 -333 0
-332 -334 0
-332 -335 0
-333 -334 0
-333 -335 0
-334 -335 0
331 332 333 334 335 0
-336 -337 0
-336 -338 0
-336 -339 0
-336 -340 0
-337 -338 0
-337 -339 0
-337 -340 0
-338 -339 0
-338 -340 0
-339 -340 0
336 337 338 339 340 0
-341 -342 0
-341 -343 0
-341 -344 0
-341 -345 0
-342 -343 0
-342 -344 0
-342 -345 0
-343 -344 0
-343 -345 0
-344 -345 0
341 342 343 344 345 0
-346 -347 0
-346 -348 0
-346 -349 0
-346 -350 0
-347 -348 0
-347 -349 0
-347 -350 0
-348 -349 0
-348 -350 0
-349 -350 0
346 347 348 349 350 0
-351 -352 0
-351 -353 0
-351 -354 0
-351 -355 0
-352 -353 0
-352 -354 0
-352 -355 0
-353 -354 0
-353 -355 0
-354 -355 0
351 352 353 354 355 0
-356 -357 0
-356 -358 0
-356 -359 0
-356 -360 0
-357 -358 0
-357 -359 0
-357 -360 0
-358 -359 0
-358 -360 0
-359 -360 0
356 357 358 359 360 0
-361 -362 0
-361 -363 0
-361 -364 0
-361 -365 0
-362 -363 0
-362 -364 0
-362 -365 0
-363 -364 0
-363 -365 0
-364 -365 0
361 362 363 364 365 0
-366 -367 0
-366 -368 0
-366 -369 0
-366 -370 0
-367 -368 0
-367 -369 0
-367 -370 0
-368 -369 0
-368 -370 0
-369 -370 0
366 367 368 369 370 0
-371 -372 0
-371 -373 0
-371 -374 0
-371 -375 0
-372 -373 0
-372 -374 0
-372 -375 0
-373 -374 0
-373 -375 0
-374 -375 0
371 372 373 374 375 0
-376 -377 0
-376 -378 0
-376 -379 0
-376 -380 0
-377 -378 0
-377 -379 0
-377 -380 0
-378 -379 0
-378 -380 0
-379 -380 0
376 377 378 379 380 0
-381 -382 0
-381 -383 0
-381 -384 0
-381 -385 0
-382 -383 0
-382 -384 0
-382 -385 0
-383 -384 0
-383 -385 0
-384 -385 0
381 382 383 384 385 0
-386 -387 0
-386 -388 0
-386 -389 0
-386 -390 0
-387 -388 0
-387 -389 0
-387 -390 0
-388 -389 0
-388 -390 0
-389 -390 0
386 387 388 389 390 0
-391 -392 0
-391 -393 0
-391 -394 0
-391 -395 0
-392 -393 0
-392 -394 0
-392 -395 0
-393 -394 0
-393 -395 0
-394 -395 0
391 392 393 394 395 0
-396 -397 0
-396 -398 0
-396 -399 0
-396 -400 0
-397 -398 0
-397 -399 0
-397 -400 0
-398 -399 0
-398 -400 0
-399 -400 0
396 397 398 399 400 0
-401 -402 0
-401 -403 0
-401 -404 0
-401 -405 0
-402 -403 0
-402 -404 0
-402 -405 0
-403 -404 0
-403 -405 0
-404 -405 0
401 402 403 404 405 0
-406 -407 0
-406 -408 0
-406 -409 0
-406 -410 0
-407 -408 0
-407 -409 0
-407 -410 0
-408 -409 0
-408 -410 0
-409 -410 0
406 407 408 409 410 0
-411 -412 0
-411 -413 0
-411 -414 0
-411 -415 0
-412 -413 0
-412 -414 0
-412 -415 0
-413 -414 0
-413 -415 0
-414 -415 0
411 412 413 414 415 0
-416 -417 0
-416 -418 0
-416 -419 0
-416 -420 0
-417 -418 0
-417 -419 0
-417 -420 0
-418 -419 0
-418 -420 0
-419 -420 0
416 417 418 419 420 0
-421 -422 0
-421 -423 0
-421 -424 0
-421 -425 0
-422 -423 0
-422 -424 0
-422 -425 0
-423 -424 0
-423 -425 0
-424 -425 0
421 422 423 424 425 0
-426 -427 0
-426 -428 0
-426 -429 0
-426 -430 0
-427 -428 0
-427 -429 0
-427 -430 0
-428 -429 0
-428 -430 0
-429 -430 0
426 427 428 429 430 0
-431 -432 0
-431 -433 0
-431 -434 0
-431 -435 0
-432 -433 0
-432 -434 0
-432 -435 0
-433 -434 0
-433 -435 0
-434 -435 0
431 432 433 434 435 0
-436 -437 0
-436 -438 0
-436 -439 0
-436 -440 0
-437 -438 0
-437 -439 0
-437 -440 0
-438 -439 0
-438 -440 0
-439 -440 0
436 437 438 439 440 0
-441 -442 0
-441 -443 0
-441 -444 0
-441 -445 0
-442 -443 0
-442 -444 0
-442 -445 0
-443 -444 0
-443 -445 0
-444 -445 0
441 442 443 444 445 0
-446 -447 0
-446 -448 0
-446 -449 0
-446 -450 0
-447 -448 0
-447 -449 0
-447 -450 0
-448 -449 0
-448 -450 0
-449 -450 0
446 447 448 449 450 0
-451 -452 0
-451 -453 0
-451 -454 0
-451 -455 0
-452 -453 0
-452 -454 0
-452 -455 0
-453 -454 0
-453 -455 0
-454 -455 0
451 452 453 454 455 0
-456 -457 0
-456 -458 0
-456 -459 0
-456 -460 0
-457 -458 0
-457 -459 0
-457 -460 0
-458 -459 0
-458 -460 0
-459 -460 0
456 457 458 459 460 0
-461 -462 0
-461 -463 0
-461 -464 0
-461 -465 0
-462 -463 0
-462 -464 0
-462 -465 0
-463 -464 0
-463 -465 0
-464 -465 0
461 462 463 464 465 0
-466 -467 0
-466 -468 0
-466 -469 0
-466 -470 0
-467 -468 0
-467 -469 0
-467 -470 0
-468 -469 0
-468 -470 0
-469 -470 0
466 467 468 469 470 0
-471 -472 0
-471 -473 0
-471 -474 0
-471 -475 0
-472 -473 0
-472 -474 0
-472 -475 0
-473 -474 0
-473 -475 0
-474 -475 0
471 472 473 474 475 0
-476 -477 0
-476 -478 0
-476 -479 0
-476 -480 0
-477 -478 0
-477 -479 0
-477 -480 0
-478 -479 0
-478 -480 0
-479 -480 0
476 477 478 479 480 0
-481 -482 0
-481 -483 0
-481 -484 0
-481 -485 0
-482 -483 0
-482 -484 0
-482 -485 0
-483 -484 0
-483 -485 0
-484 -485 0
481 482 483 484 485 0
-486 -487 0
-486 -488 0
-486 -489 0
-486 -490 0
-487 -488 0
-487 -489 0
-487 -490 0
-488 -489 0
-488 -490 0
-489 -490 0
486 487 488 489 490 0
-491 -492 0
-491 -493 0
-491 -494 0
-491 -495 0
-492 -493 0
-492 -494 0
-492 -495 0
-493 -494 0
-493 -495 0
-494 -495 0
491 492 493 494 495 0
-496 -497 0
-496 -498 0
-496 -499 0
-496 -500 0
-497 -498 0
-497 -499 0
-497 -500 0
-498 -499 0
-498 -500 0
-499 -500 0
496 497 498 499 500 0
-1 -6 0
-2 -7 0
-3 -8 0
-4 -9 0
-5 -10 0
-6 -21 0
-7 -22 0
-8 -23 0
-9 -24 0
-10 -25 0
-21 -41 0
-22 -42 0
-23 -43 0
-24 -44 0
-25 -45 0
-41 -61 0
-42 -62 0
-43 -63 0
-44 -64 0
-45 -65 0
-51 -56 0
-52 -57 0
-53 -58 0
-54 -59 0
-55 -60 0
-56 -61 0
-57 -62 0
-58 -63 0
-59 -64 0
-60 -65 0
-56 -76 0
-57 -77 0
-58 -78 0
-59 -79 0
-60 -80 0
-61 -71 0
-62 -72 0
-63 -73 0
-64 -74 0
-65 -75 0
-66 -86 0
-67 -87 0
-68 -88 0
-69 -89 0
-70 -90 0
-131 -141 0
-132 -142 0
-133 -143 0
-134 -144 0
-135 -145 0
-156 -176 0
-157 -177 0
-158 -178 0
-159 -179 0
-160 -180 0
-191 -196 0
-192 -197 0
-193 -198 0
-194 -199 0
-195 -200 0
-196 -206 0
-197 -207 0
-198 -208 0
-199 -209 0
-200 -210 0
-211 -216 0
-212 -217 0
-213 -218 0
-214 -219 0
-215 -220 0
-241 -256 0
-242 -257 0
-243 -258 0
-244 -259 0
-245 -260 0
-256 -266 0
-257 -267 0
-258 -268 0
-259 -269 0
-260 -270 0
-261 -271 0
-262 -272 0
-263 -273 0
-264 -274 0
-265 -275 0
-291 -296 0
-292 -297 0
-293 -298 0
-294 -299 0
-295 -300 0
-296 -301 0
-297 -302 0
-298 -303 0
-299 -304 0
-300 -305 0
-296 -306 0
-297 -307 0
-298 -308 0
-299 -309 0
-300 -310 0
-301 -306 0
-302 -307 0
-303 -308 0
-304 -309 0
-305 -310 0
-356 -371 0
-357 -372 0
-358 -373 0
-359 -374 0
-360 -375 0
-371 -391 0
-372 -392 0
-373 -393 0
-374 -394 0
-375 -395 0
-386 -391 0
-387 -392 0
-388 -393 0
-389 -394 0
-390 -395 0
-386 -401 0
-387 -402 0
-388 -403 0
-389 -404 0
-390 -405 0
-391 -406 0
-392 -407 0
-393 -408 0
-394 -409 0
-395 -410 0
-411 -421 0
-412 -422 0
-413 -423 0
-414 -424 0
-415 -425 0
-426 -436 0
-427 -437 0
-428 -438 0
-429 -439 0
-430 -440 0
-431 -451 0
-432 -452 0
-433 -453 0
-434 -454 0
-435 -455 0
-436 -451 0
-437 -452 0
-438 -453 0
-439 -454 0
-440 -455 0
-456 -476 0
-457 -477 0
-458 -478 0
-459 -479 0
-460 -480 0
-466 -481 0
-467 -482 0
-468 -483 0
-469 -484 0
-470 -485 0
-476 -496 0
-477 -497 0
-478 -498 0
-479 -499 0
-480 -500 0
-1 -496 0
-2 -497 0
-3 -498 0
-4 -499 0
-5 -500 0
-1 -46 0
-2 -47 0
-3 -48 0
-4 -49 0
-5 -50 0
-1 -61 0
-2 -62 0
-3 -63 0
-4 -64 0
-5 -65 0
-1 -66 0
-2 -67 0
-3 -68 0
-4 -69 0
-5 -70 0
-1 -91 0
-2 -92 0
-3 -93 0
-4 -94 0
-5 -95 0
-1 -146 0
-2 -147 0
-3 -148 0
-4 -149 0
-5 -150 0
-1 -176 0
-2 -177 0
-3 -178 0
-4 -179 0
-5 -180 0
-1 -366 0
-2 -367 0
-3 -368 0
-4 -369 0
-5 -370 0
-6 -46 0
-7 -47 0
-8 -48 0
-9 -49 0
-10 -50 0
-6 -71 0
-7 -72 0
-8 -73 0
-9 -74 0
-10 -75 0
-6 -186 0
-7 -187 0
-8 -188 0
-9 -189 0
-10 -190 0
-6 -251 0
-7 -252 0
-8 -253 0
-9 -254 0
-10 -255 0
-6 -366 0
-7 -367 0
-8 -368 0
-9 -369 0
-10 -370 0
-6 -436 0
-7 -437 0
-8 -438 0
-9 -439 0
-10 -440 0
-11 -101 0
-12 -102 0
-13 -103 0
-14 -104 0
-15 -105 0
-11 -116 0
-12 -117 0
-13 -118 0
-14 -119 0
-15 -120 0
-11 -206 0
-12 -207 0
-13 -208 0
-14 -209 0
-15 -210 0
-11 -331 0
-12 -332 0
-13 -333 0
-14 -334 0
-15 -335 0
-16 -96 0
-17 -97 0
-18 -98 0
-19 -99 0
-20 -100 0
-16 -141 0
-17 -142 0
-18 -143 0
-19 -144 0
-20 -145 0
-16 -156 0
-17 -157 0
-18 -158 0
-19 -159 0
-20 -160 0
-16 -221 0
-17 -222 0
-18 -223 0
-19 -224 0
-20 -225 0
-16 -311 0
-17 -312 0
-18 -313 0
-19 -314 0
-20 -315 0
-16 -321 0
-17 -322 0
-18 -323 0
-19 -324 0
-20 -325 0
-16 -346 0
-17 -347 0
-18 -348 0
-19 -349 0
-20 -350 0
-16 -431 0
-17 -432 0
-18 -433 0
-19 -434 0
-20 -435 0
-16 -471 0
-17 -472 0
-18 -473 0
-19 -474 0
-20 -475 0
-16 -491 0
-17 -492 0
-18 -493 0
-19 -494 0
-20 -495 0
-21 -221 0
-22 -222 0
-23 -223 0
-24 -224 0
-25 -225 0
-21 -241 0
-22 -242 0
-23 -243 0
-24 -244 0
-25 -245 0
-21 -266 0
-22 -267 0
-23 -268 0
-24 -269 0
-25 -270 0
-21 -271 0
-22 -272 0
-23 -273 0
-24 -274 0
-25 -275 0
-21 -286 0
-22 -287 0
-23 -288 0
-24 -289 0
-25 -290 0
-21 -306 0
-22 -307 0
-23 -308 0
-24 -309 0
-25 -310 0
-21 -386 0
-22 -387 0
-23 -388 0
-24 -389 0
-25 -390 0
-26 -61 0
-27 -62 0
-28 -63 0
-29 -64 0
-30 -65 0
-26 -81 0
-27 -82 0
-28 -83 0
-29 -84 0
-30 -85 0
-26 -166 0
-27 -167 0
-28 -168 0
-29 -169 0
-30 -170 0
-26 -186 0
-27 -187 0
-28 -188 0
-29 -189 0
-30 -190 0
-26 -276 0
-27 -277 0
-28 -278 0
-29 -279 0
-30 -280 0
-26 -461 0
-27 -462 0
-28 -463 0
-29 -464 0
-30 -465 0
-31 -91 0
-32 -92 0
-33 -93 0
-34 -94 0
-35 -95 0
-31 -106 0
-32 -107 0
-33 -108 0
-34 -109 0
-35 -110 0
-31 -111 0
-32 -112 0
-33 -113 0
-34 -114 0
-35 -115 0
-31 -121 0
-32 -122 0
-33 -123 0
-34 -124 0
-35 -125 0
-31 -151 0
-32 -152 0
-33 -153 0
-34 -154 0
-35 -155 0
-31 -271 0
-32 -272 0
-33 -273 0
-34 -274 0
-35 -275 0
-31 -306 0
-32 -307 0
-33 -308 0
-34 -309 0
-35 -310 0
-31 -371 0
-32 -372 0
-33 -373 0
-34 -374 0
-35 -375 0
-31 -411 0
-32 -412 0
-33 -413 0
-34 -414 0
-35 -415 0
-31 -431 0
-32 -432 0
-33 -433 0
-34 -434 0
-35 -435 0
-36 -211 0
-37 -212 0
-38 -213 0
-39 -214 0
-40 -215 0
-36 -276 0
-37 -277 0
-38 -278 0
-39 -279 0
-40 -280 0
-36 -281 0
-37 -282 0
-38 -283 0
-39 -284 0
-40 -285 0
-36 -311 0
-37 -312 0
-38 -313 0
-39 -314 0
-40 -315 0
-36 -356 0
-37 -357 0
-38 -358 0
-39 -359 0
-40 -360 0
-36 -446 0
-37 -447 0
-38 -448 0
-39 -449 0
-40 -450 0
-41 -66 0
-42 -67 0
-43 -68 0
-44 -69 0
-45 -70 0
-41 -126 0
-42 -127 0
-43 -128 0
-44 -129 0
-45 -130 0
-41 -181 0
-42 -182 0
-43 -183 0
-44 -184 0
-45 -185 0
-41 -186 0
-42 -187 0
-43 -188 0
-44 -189 0
-45 -190 0
-41 -211 0
-42 -212 0
-43 -213 0
-44 -214 0
-45 -215 0
-41 -221 0
-42 -222 0
-43 -223 0
-44 -224 0
-45 -225 0
-41 -231 0
-42 -232 0
-43 -233 0
-44 -234 0
-45 -235 0
-41 -251 0
-42 -252 0
-43 -253 0
-44 -254 0
-45 -255 0
-41 -261 0
-42 -262 0
-43 -263 0
-44 -264 0
-45 -265 0
-41 -396 0
-42 -397 0
-43 -398 0
-44 -399 0
-45 -400 0
-41 -471 0
-42 -472 0
-43 -473 0
-44 -474 0
-45 -475 0
-46 -151 0
-47 -152 0
-48 -153 0
-49 -154 0
-50 -155 0
-46 -186 0
-47 -187 0
-48 -188 0
-49 -189 0
-50 -190 0
-46 -316 0
-47 -317 0
-48 -318 0
-49 -319 0
-50 -320 0
-46 -436 0
-47 -437 0
-48 -438 0
-49 -439 0
-50 -440 0
-46 -456 0
-47 -457 0
-48 -458 0
-49 -459 0
-50 -460 0
-51 -116 0
-52 -117 0
-53 -118 0
-54 -119 0
-55 -120 0
-51 -186 0
-52 -187 0
-53 -188 0
-54 -189 0
-55 -190 0
-51 -191 0
-52 -192 0
-53 -193 0
-54 -194 0
-55 -195 0
-51 -201 0
-52 -202 0
-53 -203 0
-54 -204 0
-55 -205 0
-51 -246 0
-52 -247 0
-53 -248 0
-54 -249 0
-55 -250 0
-51 -281 0
-52 -282 0
-53 -283 0
-54 -284 0
-55 -285 0
-51 -306 0
-52 -307 0
-53 -308 0
-54 -309 0
-55 -310 0
-51 -341 0
-52 -342 0
-53 -343 0
-54 -344 0
-55 -345 0
-51 -411 0
-52 -412 0
-53 -413 0
-54 -414 0
-55 -415 0
-51 -431 0
-52 -432 0
-53 -433 0
-54 -434 0
-55 -435 0
-51 -461 0
-52 -462 0
-53 -463 0
-54 -464 0
-55 -465 0
-56 -121 0
-57 -122 0
-58 -123 0
-59 -124 0
-60 -125 0
-56 -206 0
-57 -207 0
-58 -208 0
-59 -209 0
-60 -210 0
-56 -276 0
-57 -277 0
-58 -278 0
-59 -279 0
-60 -280 0
-56 -301 0
-57 -302 0
-58 -303 0
-59 -304 0
-60 -305 0
-56 -326 0
-57 -327 0
-58 -328 0
-59 -329 0
-60 -330 0
-56 -411 0
-57 -412 0
-58 -413 0
-59 -414 0
-60 -415 0
-56 -486 0
-57 -487 0
-58 -488 0
-59 -489 0
-60 -490 0
-61 -106 0
-62 -107 0
-63 -108 0
-64 -109 0
-65 -110 0
-61 -146 0
-62 -147 0
-63 -148 0
-64 -149 0
-65 -150 0
-61 -176 0
-62 -177 0
-63 -178 0
-64 -179 0
-65 -180 0
-61 -211 0
-62 -212 0
-63 -213 0
-64 -214 0
-65 -215 0
-61 -251 0
-62 -252 0
-63 -253 0
-64 -254 0
-65 -255 0
-61 -256 0
-62 -257 0
-63 -258 0
-64 -259 0
-65 -260 0
-61 -266 0
-62 -267 0
-63 -268 0
-64 -269 0
-65 -270 0
-61 -366 0
-62 -367 0
-63 -368 0
-64 -369 0
-65 -370 0
-61 -421 0
-62 -422 0
-63 -423 0
-64 -424 0
-65 -425 0
-61 -471 0
-62 -472 0
-63 -473 0
-64 -474 0
-65 -475 0
-61 -486 0
-62 -487 0
-63 -488 0
-64 -489 0
-65 -490 0
-66 -106 0
-67 -107 0
-68 -108 0
-69 -109 0
-70 -110 0
-66 -186 0
-67 -187 0
-68 -188 0
-69 -189 0
-70 -190 0
-66 -266 0
-67 -267 0
-68 -268 0
-69 -269 0
-70 -270 0
-71 -101 0
-72 -102 0
-73 -103 0
-74 -104 0
-75 -105 0
-71 -126 0
-72 -127 0
-73 -128 0
-74 -129 0
-75 -130 0
-71 -176 0
-72 -177 0
-73 -178 0
-74 -179 0
-75 -180 0
-71 -251 0
-72 -252 0
-73 -253 0
-74 -254 0
-75 -255 0
-71 -356 0
-72 -357 0
-73 -358 0
-74 -359 0
-75 -360 0
-71 -456 0
-72 -457 0
-73 -458 0
-74 -459 0
-75 -460 0
-71 -491 0
-72 -492 0
-73 -493 0
-74 -494 0
-75 -495 0
-76 -101 0
-77 -102 0
-78 -103 0
-79 -104 0
-80 -105 0
-76 -381 0
-77 -382 0
-78 -383 0
-79 -384 0
-80 -385 0
-76 -396 0
-77 -397 0
-78 -398 0
-79 -399 0
-80 -400 0
-81 -136 0
-82 -137 0
-83 -138 0
-84 -139 0
-85 -140 0
-81 -151 0
-82 -152 0
-83 -153 0
-84 -154 0
-85 -155 0
-81 -181 0
-82 -182 0
-83 -183 0
-84 -184 0
-85 -185 0
-81 -251 0
-82 -252 0
-83 -253 0
-84 -254 0
-85 -255 0
-81 -271 0
-82 -272 0
-83 -273 0
-84 -274 0
-85 -275 0
-81 -416 0
-82 -417 0
-83 -418 0
-84 -419 0
-85 -420 0
-81 -491 0
-82 -492 0
-83 -493 0
-84 -494 0
-85 -495 0
-86 -181 0
-87 -182 0
-88 -183 0
-89 -184 0
-90 -185 0
-86 -246 0
-87 -247 0
-88 -248 0
-89 -249 0
-90 -250 0
-86 -266 0
-87 -267 0
-88 -268 0
-89 -269 0
-90 -270 0
-86 -296 0
-87 -297 0
-88 -298 0
-89 -299 0
-90 -300 0
-86 -301 0
-87 -302 0
-88 -303 0
-89 -304 0
-90 -305 0
-86 -311 0
-87 -312 0
-88 -313 0
-89 -314 0
-90 -315 0
-86 -356 0
-87 -357 0
-88 -358 0
-89 -359 0
-90 -360 0
-86 -386 0
-87 -387 0
-88 -388 0
-89 -389 0
-90 -390 0
-86 -396 0
-87 -397 0
-88 -398 0
-89 -399 0
-90 -400 0
-86 -436 0
-87 -437 0
-88 -438 0
-89 -439 0
-90 -440 0
-86 -466 0
-87 -467 0
-88 -468 0
-89 -469 0
-90 -470 0
-91 -221 0
-92 -222 0
-93 -223 0
-94 -224 0
-95 -225 0
-91 -351 0
-92 -352 0
-93 -353 0
-94 -354 0
-95 -355 0
-91 -361 0
-92 -362 0
-93 -363 0
-94 -364 0
-95 -365 0
-91 -371 0
-92 -372 0
-93 -373 0
-94 -374 0
-95 -375 0
-91 -381 0
-92 -382 0
-93 -383 0
-94 -384 0
-95 -385 0
-91 -451 0
-92 -452 0
-93 -453 0
-94 -454 0
-95 -455 0
-96 -141 0
-97 -142 0
-98 -143 0
-99 -144 0
-100 -145 0
-96 -206 0
-97 -207 0
-98 -208 0
-99 -209 0
-100 -210 0
-96 -211 0
-97 -212 0
-98 -213 0
-99 -214 0
-100 -215 0
-96 -391 0
-97 -392 0
-98 -393 0
-99 -394 0
-100 -395 0
-96 -401 0
-97 -402 0
-98 -403 0
-99 -404 0
-100 -405 0
-96 -416 0
-97 -417 0
-98 -418 0
-99 -419 0
-100 -420 0
-96 -436 0
-97 -437 0
-98 -438 0
-99 -439 0
-100 -440 0
-101 -131 0
-102 -132 0
-103 -133 0
-104 -134 0
-105 -135 0
-101 -316 0
-102 -317 0
-103 -318 0
-104 -319 0
-105 -320 0
-101 -421 0
-102 -422 0
-103 -423 0
-104 -424 0
-105 -425 0
-101 -486 0
-102 -487 0
-103 -488 0
-104 -489 0
-105 -490 0
-106 -136 0
-107 -137 0
-108 -138 0
-109 -139 0
-110 -140 0
-106 -141 0
-107 -142 0
-108 -143 0
-109 -144 0
-110 -145 0
-106 -276 0
-107 -277 0
-108 -278 0
-109 -279 0
-110 -280 0
-106 -346 0
-107 -347 0
-108 -348 0
-109 -349 0
-110 -350 0
-106 -356 0
-107 -357 0
-108 -358 0
-109 -359 0
-110 -360 0
-106 -486 0
-107 -487 0
-108 -488 0
-109 -489 0
-110 -490 0
-111 -161 0
-112 -162 0
-113 -163 0
-114 -164 0
-115 -165 0
-111 -176 0
-112 -177 0
-113 -178 0
-114 -179 0
-115 -180 0
-111 -271 0
-112 -272 0
-113 -273 0
-114 -274 0
-115 -275 0
-111 -336 0
-112 -337 0
-113 -338 0
-114 -339 0
-115 -340 0
-111 -341 0
-112 -342 0
-113 -343 0
-114 -344 0
-115 -345 0
-111 -366 0
-112 -367 0
-113 -368 0
-114 -369 0
-115 -370 0
-116 -311 0
-117 -312 0
-118 -313 0
-119 -314 0
-120 -315 0
-116 -341 0
-117 -342 0
-118 -343 0
-119 -344 0
-120 -345 0
-116 -376 0
-117 -377 0
-118 -378 0
-119 -379 0
-120 -380 0
-116 -451 0
-117 -452 0
-118 -453 0
-119 -454 0
-120 -455 0
-116 -471 0
-117 -472 0
-118 -473 0
-119 -474 0
-120 -475 0
-121 -201 0
-122 -202 0
-123 -203 0
-124 -204 0
-125 -205 0
-121 -246 0
-122 -247 0
-123 -248 0
-124 -249 0
-125 -250 0
-121 -376 0
-122 -377 0
-123 -378 0
-124 -379 0
-125 -380 0
-121 -431 0
-122 -432 0
-123 -433 0
-124 -434 0
-125 -435 0
-121 -496 0
-122 -497 0
-123 -498 0
-124 -499 0
-125 -500 0
-126 -196 0
-127 -197 0
-128 -198 0
-129 -199 0
-130 -200 0
-126 -226 0
-127 -227 0
-128 -228 0
-129 -229 0
-130 -230 0
-126 -276 0
-127 -277 0
-128 -278 0
-129 -279 0
-130 -280 0
-126 -361 0
-127 -362 0
-128 -363 0
-129 -364 0
-130 -365 0
-126 -401 0
-127 -402 0
-128 -403 0
-129 -404 0
-130 -405 0
-126 -426 0
-127 -427 0
-128 -428 0
-129 -429 0
-130 -430 0
-126 -441 0
-127 -442 0
-128 -443 0
-129 -444 0
-130 -445 0
-131 -216 0
-132 -217 0
-133 -218 0
-134 -219 0
-135 -220 0
-131 -221 0
-132 -222 0
-133 -223 0
-134 -224 0
-135 -225 0
-131 -256 0
-132 -257 0
-133 -258 0
-134 -259 0
-135 -260 0
-131 -326 0
-132 -327 0
-133 -328 0
-134 -329 0
-135 -330 0
-131 -481 0
-132 -482 0
-133 -483 0
-134 -484 0
-135 -485 0
-136 -186 0
-137 -187 0
-138 -188 0
-139 -189 0
-140 -190 0
-136 -256 0
-137 -257 0
-138 -258 0
-139 -259 0
-140 -260 0
-136 -406 0
-137 -407 0
-138 -408 0
-139 -409 0
-140 -410 0
-136 -431 0
-137 -432 0
-138 -433 0
-139 -434 0
-140 -435 0
-136 -481 0
-137 -482 0
-138 -483 0
-139 -484 0
-140 -485 0
-141 -236 0
-142 -237 0
-143 -238 0
-144 -239 0
-145 -240 0
-141 -291 0
-142 -292 0
-143 -293 0
-144 -294 0
-145 -295 0
-141 -306 0
-142 -307 0
-143 -308 0
-144 -309 0
-145 -310 0
-141 -326 0
-142 -327 0
-143 -328 0
-144 -329 0
-145 -330 0
-141 -346 0
-142 -347 0
-143 -348 0
-144 -349 0
-145 -350 0
-141 -406 0
-142 -407 0
-143 -408 0
-144 -409 0
-145 -410 0
-141 -441 0
-142 -442 0
-143 -443 0
-144 -444 0
-145 -445 0
-141 -481 0
-142 -482 0
-143 -483 0
-144 -484 0
-145 -485 0
-146 -191 0
-147 -192 0
-148 -193 0
-149 -194 0
-150 -195 0
-146 -256 0
-147 -257 0
-148 -258 0
-149 -259 0
-150 -260 0
-146 -331 0
-147 -332 0
-148 -333 0
-149 -334 0
-150 -335 0
-146 -361 0
-147 -362 0
-148 -363 0
-149 -364 0
-150 -365 0
-146 -416 0
-147 -417 0
-148 -418 0
-149 -419 0
-150 -420 0
-146 -426 0
-147 -427 0
-148 -428 0
-149 -429 0
-150 -430 0
-146 -431 0
-147 -432 0
-148 -433 0
-149 -434 0
-150 -435 0
-146 -451 0
-147 -452 0
-148 -453 0
-149 -454 0
-150 -455 0
-146 -466 0
-147 -467 0
-148 -468 0
-149 -469 0
-150 -470 0
-151 -211 0
-152 -212 0
-153 -213 0
-154 -214 0
-155 -215 0
-151 -226 0
-152 -227 0
-153 -228 0
-154 -229 0
-155 -230 0
-151 -236 0
-152 -237 0
-153 -238 0
-154 -239 0
-155 -240 0
-151 -271 0
-152 -272 0
-153 -273 0
-154 -274 0
-155 -275 0
-151 -276 0
-152 -277 0
-153 -278 0
-154 -279 0
-155 -280 0
-151 -386 0
-152 -387 0
-153 -388 0
-154 -389 0
-155 -390 0
-151 -426 0
-152 -427 0
-153 -428 0
-154 -429 0
-155 -430 0
-151 -456 0
-152 -457 0
-153 -458 0
-154 -459 0
-155 -460 0
-151 -496 0
-152 -497 0
-153 -498 0
-154 -499 0
-155 -500 0
-156 -186 0
-157 -187 0
-158 -188 0
-159 -189 0
-160 -190 0
-156 -366 0
-157 -367 0
-158 -368 0
-159 -369 0
-160 -370 0
-156 -406 0
-157 -407 0
-158 -408 0
-159 -409 0
-160 -410 0
-156 -421 0
-157 -422 0
-158 -423 0
-159 -424 0
-160 -425 0
-161 -246 0
-162 -247 0
-163 -248 0
-164 -249 0
-165 -250 0
-161 -351 0
-162 -352 0
-163 -353 0
-164 -354 0
-165 -355 0
-161 -361 0
-162 -362 0
-163 -363 0
-164 -364 0
-165 -365 0
-161 -391 0
-162 -392 0
-163 -393 0
-164 -394 0
-165 -395 0
-161 -431 0
-162 -432 0
-163 -433 0
-164 -434 0
-165 -435 0
-171 -236 0
-172 -237 0
-173 -238 0
-174 -239 0
-175 -240 0
-171 -246 0
-172 -247 0
-173 -248 0
-174 -249 0
-175 -250 0
-171 -286 0
-172 -287 0
-173 -288 0
-174 -289 0
-175 -290 0
-171 -311 0
-172 -312 0
-173 -313 0
-174 -314 0
-175 -315 0
-171 -321 0
-172 -322 0
-173 -323 0
-174 -324 0
-175 -325 0
-171 -441 0
-172 -442 0
-173 -443 0
-174 -444 0
-175 -445 0
-176 -346 0
-177 -347 0
-178 -348 0
-179 -349 0
-180 -350 0
-176 -451 0
-177 -452 0
-178 -453 0
-179 -454 0
-180 -455 0
-181 -486 0
-182 -487 0
-183 -488 0
-184 -489 0
-185 -490 0
-181 -496 0
-182 -497 0
-183 -498 0
-184 -499 0
-185 -500 0
-186 -226 0
-187 -227 0
-188 -228 0
-189 -229 0
-190 -230 0
-186 -246 0
-187 -247 0
-188 -248 0
-189 -249 0
-190 -250 0
-186 -331 0
-187 -332 0
-188 -333 0
-189 -334 0
-190 -335 0
-186 -366 0
-187 -367 0
-188 -368 0
-189 -369 0
-190 -370 0
-186 -371 0
-187 -372 0
-188 -373 0
-189 -374 0
-190 -375 0
-186 -406 0
-187 -407 0
-188 -408 0
-189 -409 0
-190 -410 0
-186 -411 0
-187 -412 0
-188 -413 0
-189 -414 0
-190 -415 0
-186 -471 0
-187 -472 0
-188 -473 0
-189 -474 0
-190 -475 0
-186 -481 0
-187 -482 0
-188 -483 0
-189 -484 0
-190 -485 0
-186 -496 0
-187 -497 0
-188 -498 0
-189 -499 0
-190 -500 0
-191 -216 0
-192 -217 0
-193 -218 0
-194 -219 0
-195 -220 0
-191 -246 0
-192 -247 0
-193 -248 0
-194 -249 0
-195 -250 0
-191 -251 0
-192 -252 0
-193 -253 0
-194 -254 0
-195 -255 0
-191 -346 0
-192 -347 0
-193 -348 0
-194 -349 0
-195 -350 0
-191 -406 0
-192 -407 0
-193 -408 0
-194 -409 0
-195 -410 0
-191 -411 0
-192 -412 0
-193 -413 0
-194 -414 0
-195 -415 0
-191 -456 0
-192 -457 0
-193 -458 0
-194 -459 0
-195 -460 0
-191 -461 0
-192 -462 0
-193 -463 0
-194 -464 0
-195 -465 0
-196 -226 0
-197 -227 0
-198 -228 0
-199 -229 0
-200 -230 0
-196 -456 0
-197 -457 0
-198 -458 0
-199 -459 0
-200 -460 0
-201 -321 0
-202 -322 0
-203 -323 0
-204 -324 0
-205 -325 0
-201 -401 0
-202 -402 0
-203 -403 0
-204 -404 0
-205 -405 0
-201 -406 0
-202 -407 0
-203 -408 0
-204 -409 0
-205 -410 0
-201 -436 0
-202 -437 0
-203 -438 0
-204 -439 0
-205 -440 0
-206 -251 0
-207 -252 0
-208 -253 0
-209 -254 0
-210 -255 0
-206 -301 0
-207 -302 0
-208 -303 0
-209 -304 0
-210 -305 0
-206 -316 0
-207 -317 0
-208 -318 0
-209 -319 0
-210 -320 0
-206 -356 0
-207 -357 0
-208 -358 0
-209 -359 0
-210 -360 0
-206 -421 0
-207 -422 0
-208 -423 0
-209 -424 0
-210 -425 0
-211 -321 0
-212 -322 0
-213 -323 0
-214 -324 0
-215 -325 0
-211 -356 0
-212 -357 0
-213 -358 0
-214 -359 0
-215 -360 0
-211 -371 0
-212 -372 0
-213 -373 0
-214 -374 0
-215 -375 0
-216 -396 0
-217 -397 0
-218 -398 0
-219 -399 0
-220 -400 0
-216 -461 0
-217 -462 0
-218 -463 0
-219 -464 0
-220 -465 0
-221 -246 0
-222 -247 0
-223 -248 0
-224 -249 0
-225 -250 0
-221 -276 0
-222 -277 0
-223 -278 0
-224 -279 0
-225 -280 0
-221 -301 0
-222 -302 0
-223 -303 0
-224 -304 0
-225 -305 0
-221 -346 0
-222 -347 0
-223 -348 0
-224 -349 0
-225 -350 0
-221 -476 0
-222 -477 0
-223 -478 0
-224 -479 0
-225 -480 0
-226 -306 0
-227 -307 0
-228 -308 0
-229 -309 0
-230 -310 0
-226 -396 0
-227 -397 0
-228 -398 0
-229 -399 0
-230 -400 0
-226 -451 0
-227 -452 0
-228 -453 0
-229 -454 0
-230 -455 0
-231 -431 0
-232 -432 0
-233 -433 0
-234 -434 0
-235 -435 0
-236 -306 0
-237 -307 0
-238 -308 0
-239 -309 0
-240 -310 0
-236 -316 0
-237 -317 0
-238 -318 0
-239 -319 0
-240 -320 0
-236 -326 0
-237 -327 0
-238 -328 0
-239 -329 0
-240 -330 0
-236 -431 0
-237 -432 0
-238 -433 0
-239 -434 0
-240 -435 0
-241 -341 0
-242 -342 0
-243 -343 0
-244 -344 0
-245 -345 0
-241 -441 0
-242 -442 0
-243 -443 0
-244 -444 0
-245 -445 0
-246 -271 0
-247 -272 0
-248 -273 0
-249 -274 0
-250 -275 0
-246 -341 0
-247 -342 0
-248 -343 0
-249 -344 0
-250 -345 0
-246 -346 0
-247 -347 0
-248 -348 0
-249 -349 0
-250 -350 0
-246 -386 0
-247 -387 0
-248 -388 0
-249 -389 0
-250 -390 0
-246 -391 0
-247 -392 0
-248 -393 0
-249 -394 0
-250 -395 0
-246 -416 0
-247 -417 0
-248 -418 0
-249 -419 0
-250 -420 0
-246 -436 0
-247 -437 0
-248 -438 0
-249 -439 0
-250 -440 0
-251 -276 0
-252 -277 0
-253 -278 0
-254 -279 0
-255 -280 0
-251 -471 0
-252 -472 0
-253 -473 0
-254 -474 0
-255 -475 0
-256 -321 0
-257 -322 0
-258 -323 0
-259 -324 0
-260 -325 0
-256 -331 0
-257 -332 0
-258 -333 0
-259 -334 0
-260 -335 0
-256 -341 0
-257 -342 0
-258 -343 0
-259 -344 0
-260 -345 0
-256 -391 0
-257 -392 0
-258 -393 0
-259 -394 0
-260 -395 0
-256 -456 0
-257 -457 0
-258 -458 0
-259 -459 0
-260 -460 0
-261 -336 0
-262 -337 0
-263 -338 0
-264 -339 0
-265 -340 0
-261 -406 0
-262 -407 0
-263 -408 0
-264 -409 0
-265 -410 0
-261 -431 0
-262 -432 0
-263 -433 0
-264 -434 0
-265 -435 0
-261 -456 0
-262 -457 0
-263 -458 0
-264 -459 0
-265 -460 0
-261 -491 0
-262 -492 0
-263 -493 0
-264 -494 0
-265 -495 0
-266 -306 0
-267 -307 0
-268 -308 0
-269 -309 0
-270 -310 0
-266 -346 0
-267 -347 0
-268 -348 0
-269 -349 0
-270 -350 0
-266 -371 0
-267 -372 0
-268 -373 0
-269 -374 0
-270 -375 0
-266 -456 0
-267 -457 0
-268 -458 0
-269 -459 0
-270 -460 0
-271 -321 0
-272 -322 0
-273 -323 0
-274 -324 0
-275 -325 0
-271 -351 0
-272 -352 0
-273 -353 0
-274 -354 0
-275 -355 0
-276 -406 0
-277 -407 0
-278 -408 0
-279 -409 0
-280 -410 0
-276 -421 0
-277 -422 0
-278 -423 0
-279 -424 0
-280 -425 0
-276 -441 0
-277 -442 0
-278 -443 0
-279 -444 0
-280 -445 0
-276 -466 0
-277 -467 0
-278 -468 0
-279 -469 0
-280 -470 0
-276 -476 0
-277 -477 0
-278 -478 0
-279 -479 0
-280 -480 0
-276 -481 0
-277 -482 0
-278 -483 0
-279 -484 0
-280 -485 0
-281 -321 0
-282 -322 0
-283 -323 0
-284 -324 0
-285 -325 0
-281 -336 0
-282 -337 0
-283 -338 0
-284 -339 0
-285 -340 0
-281 -471 0
-282 -472 0
-283 -473 0
-284 -474 0
-285 -475 0
-281 -476 0
-282 -477 0
-283 -478 0
-284 -479 0
-285 -480 0
-286 -351 0
-287 -352 0
-288 -353 0
-289 -354 0
-290 -355 0
-286 -451 0
-287 -452 0
-288 -453 0
-289 -454 0
-290 -455 0
-291 -376 0
-292 -377 0
-293 -378 0
-294 -379 0
-295 -380 0
-291 -456 0
-292 -457 0
-293 -458 0
-294 -459 0
-295 -460 0
-291 -471 0
-292 -472 0
-293 -473 0
-294 -474 0
-295 -475 0
-296 -331 0
-297 -332 0
-298 -333 0
-299 -334 0
-300 -335 0
-296 -421 0
-297 -422 0
-298 -423 0
-299 -424 0
-300 -425 0
-301 -376 0
-302 -377 0
-303 -378 0
-304 -379 0
-305 -380 0
-301 -471 0
-302 -472 0
-303 -473 0
-304 -474 0
-305 -475 0
-306 -341 0
-307 -342 0
-308 -343 0
-309 -344 0
-310 -345 0
-311 -366 0
-312 -367 0
-313 -368 0
-314 -369 0
-315 -370 0
-316 -396 0
-317 -397 0
-318 -398 0
-319 -399 0
-320 -400 0
-321 -386 0
-322 -387 0
-323 -388 0
-324 -389 0
-325 -390 0
-326 -396 0
-327 -397 0
-328 -398 0
-329 -399 0
-330 -400 0
-331 -456 0
-332 -457 0
-333 -458 0
-334 -459 0
-335 -460 0
-331 -466 0
-332 -467 0
-333 -468 0
-334 -469 0
-335 -470 0
-336 -361 0
-337 -362 0
-338 -363 0
-339 -364 0
-340 -365 0
-336 -391 0
-337 -392 0
-338 -393 0
-339 -394 0
-340 -395 0
-336 -461 0
-337 -462 0
-338 -463 0
-339 -464 0
-340 -465 0
-341 -396 0
-342 -397 0
-343 -398 0
-344 -399 0
-345 -400 0
-341 -406 0
-342 -407 0
-343 -408 0
-344 -409 0
-345 -410 0
-341 -436 0
-342 -437 0
-343 -438 0
-344 -439 0
-345 -440 0
-346 -376 0
-347 -377 0
-348 -378 0
-349 -379 0
-350 -380 0
-346 -381 0
-347 -382 0
-348 -383 0
-349 -384 0
-350 -385 0
-346 -401 0
-347 -402 0
-348 -403 0
-349 -404 0
-350 -405 0
-346 -471 0
-347 -472 0
-348 -473 0
-349 -474 0
-350 -475 0
-351 -386 0
-352 -387 0
-353 -388 0
-354 -389 0
-355 -390 0
-351 -476 0
-352 -477 0
-353 -478 0
-354 -479 0
-355 -480 0
-361 -446 0
-362 -447 0
-363 -448 0
-364 -449 0
-365 -450 0
-366 -406 0
-367 -407 0
-368 -408 0
-369 -409 0
-370 -410 0
-366 -411 0
-367 -412 0
-368 -413 0
-369 -414 0
-370 -415 0
-366 -451 0
-367 -452 0
-368 -453 0
-369 -454 0
-370 -455 0
-366 -471 0
-367 -472 0
-368 -473 0
-369 -474 0
-370 -475 0
-366 -481 0
-367 -482 0
-368 -483 0
-369 -484 0
-370 -485 0
-371 -461 0
-372 -462 0
-373 -463 0
-374 -464 0
-375 -465 0
-376 -451 0
-377 -452 0
-378 -453 0
-379 -454 0
-380 -455 0
-381 -406 0
-382 -407 0
-383 -408 0
-384 -409 0
-385 -410 0
-396 -456 0
-397 -457 0
-398 -458 0
-399 -459 0
-400 -460 0
-401 -481 0
-402 -482 0
-403 -483 0
-404 -484 0
-405 -485 0
-411 -466 0
-412 -467 0
-413 -468 0
-414 -469 0
-415 -470 0
-421 -461 0
-422 -462 0
-423 -463 0
-424 -464 0
-425 -465 0
-421 -471 0
-422 -472 0
-423 -473 0
-424 -474 0
-425 -475 0
-426 -451 0
-427 -452 0
-428 -453 0
-429 -454 0
-430 -455 0
-426 -461 0
-427 -462 0
-428 -463 0
-429 -464 0
-430 -465 0
-431 -466 0
-432 -467 0
-433 -468 0
-434 -469 0
-435 -470 0
-441 -486 0
-442 -487 0
-443 -488 0
-444 -489 0
-445 -490 0
-446 -471 0
-447 -472 0
-448 -473 0
-449 -474 0
-450 -475 0
-451 -486 0
-452 -487 0
-453 -488 0
-454 -489 0
-455 -490 0
-466 -496 0
-467 -497 0
-468 -498 0
-469 -499 0
-470 -500 0
